(set-logic QF_S)
(declare-fun var0 () String)
(declare-fun var1 () String)
(declare-fun var2 () String)
(declare-fun var3 () String)
(declare-fun var4 () Int)
(declare-fun var5 () Int)
(declare-fun var6 () Int)
(declare-fun var7 () Int)
(assert (str.suffixof (str.replace var0 var1 var2) (str.at var3 var4)))
(assert (>= (str.indexof var3 var3 var5) (str.to.int var2)))
(assert (str.contains (str.replace var3 "i*#3""8%" var1) (str.replace (str.substr var2 var6 var7) (str.at var3 87) (str.replace var1 var0 var0))))
(assert (> var4 var5))
(check-sat)